solution status: time limit reached
objective value:                     55.9999994728419
shell_j_$_156__8                                    1 	(obj:0)
shell_j_$_32                                        1 	(obj:0)
shell_i_$_248                                       1 	(obj:0)
shell_i_$_77                                        1 	(obj:0)
shell_i_$_88                                        1 	(obj:0)
shell_j_$_88                                        1 	(obj:0)
shell_i_$_146                                       1 	(obj:0)
shell_j_$_197__8                                    1 	(obj:0)
shell_i_$_213__8                                    1 	(obj:0)
shell_j_$_243__8                                    1 	(obj:0)
shell_j_$_53                                        1 	(obj:0)
shell_j_$_242                                       1 	(obj:0)
shell_j_$_205__8                                    1 	(obj:0)
shell_i_$_247                                       1 	(obj:0)
shell_i_$_204__8                                    1 	(obj:0)
shell_j_$_255                                       1 	(obj:0)
shell_i_$_214                                       1 	(obj:0)
shell_j_$_163__8                                    1 	(obj:0)
shell_j_$_30                                        1 	(obj:0)
shell_j_$_52                                        1 	(obj:0)
shell_i_$_55                                        1 	(obj:0)
shell_j_$_55                                        1 	(obj:0)
shell_j_$_164__8                                    1 	(obj:0)
shell_i_$_187                                       1 	(obj:0)
shell_j_$_98                                        1 	(obj:0)
shell_j_$_100                                       1 	(obj:0)
shell_j_$_151                                       1 	(obj:0)
shell_i_$_170                                       1 	(obj:0)
shell_j_$_166                                       1 	(obj:0)
shell_i_$_161__8                                    1 	(obj:0)
shell_i_$_95                                        1 	(obj:0)
shell_j_$_64                                        1 	(obj:0)
shell_j_$_245__8                                    1 	(obj:0)
shell_i_$_281                                       1 	(obj:0)
shell_j_$_54                                        1 	(obj:0)
shell_i_$_160                                       1 	(obj:0)
shell_i_$_172__8                                    1 	(obj:0)
shell_j_$_233                                       1 	(obj:0)
shell_j_$_224                                       1 	(obj:0)
shell_j_$_76                                        1 	(obj:0)
shell_j_$_60                                        1 	(obj:0)
shell_j_$_195__8                                    1 	(obj:0)
shell_j_$_165                                       1 	(obj:0)
shell_j_$_207                                       1 	(obj:0)
shell_j_$_162__8                                    1 	(obj:0)
shell_j_$_265                                       1 	(obj:0)
shell_j_$_238__8                                    1 	(obj:0)
shell_j_$_101                                       1 	(obj:0)
shell_j_$_202__8                                    1 	(obj:0)
shell_i_$_171                                       1 	(obj:0)
shell_i_$_236__8                                    1 	(obj:0)
shell_j_$_254__8                                    1 	(obj:0)
shell_j_$_269                                       1 	(obj:0)
shell_j_$_154__8                                    1 	(obj:0)
shell_j_$_183                                       1 	(obj:0)
shell_i_$_41                                        1 	(obj:0)
shell_i_$_199                                       1 	(obj:0)
shell_j_$_280                                       1 	(obj:0)
shell_j_$_244__8                                    1 	(obj:0)
shell_j_$_203__8                                    1 	(obj:0)
shell_j_$_94                                        1 	(obj:0)
shell_j_$_63                                        1 	(obj:0)
shell_i_$_173                                       1 	(obj:0)
shell_i_$_212                                       1 	(obj:0)
shell_i_$_42                                        1 	(obj:0)
shell_i_$_38                                        1 	(obj:0)
shell_j_$_274                                       1 	(obj:0)
shell_i_$_201                                       1 	(obj:0)
shell_j_$_89                                        1 	(obj:0)
shell_i_$_253                                       1 	(obj:0)
shell_j_$_192                                       1 	(obj:0)
shell_j_$_240                                       1 	(obj:0)
shell_i_$_228                                       1 	(obj:0)
shell_j_$_283                                       1 	(obj:0)
shell_j_$_246__8                                    1 	(obj:0)
shell_i_$_99                                        1 	(obj:0)
shell_i_$_158                                       1 	(obj:0)
shell_j_$_31                                        1 	(obj:0)
shell_i_$_33                                        1 	(obj:0)
shell_i_$_252                                       1 	(obj:0)
shell_i_$_211                                       1 	(obj:0)
shell_i_$_206                                       1 	(obj:0)
$_54_x                               7.00000004256194 	(obj:0)
$_54_y                                            -10 	(obj:0)
$_54_z                               1.00000004139679 	(obj:0)
$_146_x                                            10 	(obj:0)
$_204__8_x                                         10 	(obj:0)
$_160_x                                            10 	(obj:0)
$_160_y                                            -6 	(obj:0)
$_160_z                                           -15 	(obj:0)
$_204__8_y                                         -9 	(obj:0)
$_204__8_z                                          4 	(obj:0)
$_172__8_x                                         10 	(obj:0)
$_172__8_y                                         -3 	(obj:0)
$_172__8_z                                        -13 	(obj:0)
$_146_y                                            -1 	(obj:0)
$_146_z                                            -9 	(obj:0)
$_233_x                                             9 	(obj:0)
$_233_y                                           -10 	(obj:0)
$_233_z                                           -18 	(obj:0)
$_255_x                              9.00000000607683 	(obj:0)
$_255_y                                           -10 	(obj:0)
$_224_x                              8.00000009718327 	(obj:0)
$_224_y                                           -10 	(obj:0)
$_224_z                                           -20 	(obj:0)
$_255_z                                           -10 	(obj:0)
$_248_x                                            10 	(obj:0)
$_76_x                               9.00000000389404 	(obj:0)
$_76_y                                            -10 	(obj:0)
$_76_z                                             -8 	(obj:0)
$_248_y                             -7.00000000205598 	(obj:0)
$_214_x                                            10 	(obj:0)
$_60_x                               6.00000002754946 	(obj:0)
$_60_y                                            -10 	(obj:0)
$_60_z                                             -2 	(obj:0)
$_214_y                                            -8 	(obj:0)
$_214_z                                           -12 	(obj:0)
$_195__8_x                                         10 	(obj:0)
$_195__8_y                                        -10 	(obj:0)
$_195__8_z                                        -23 	(obj:0)
$_197__8_x                            7.0000000003726 	(obj:0)
$_197__8_y                                        -10 	(obj:0)
$_165_x                                            10 	(obj:0)
$_165_y                                           -10 	(obj:0)
$_165_z                                             1 	(obj:0)
$_163__8_x                                         10 	(obj:0)
$_163__8_y                                        -10 	(obj:0)
$_207_x                                             8 	(obj:0)
$_207_y                                           -10 	(obj:0)
$_163__8_z                                          4 	(obj:0)
$_197__8_z                                          2 	(obj:0)
$_162__8_x                                         10 	(obj:0)
$_162__8_y                                        -10 	(obj:0)
$_162__8_z                                        -24 	(obj:0)
$_248_z                                             2 	(obj:0)
$_30_x                                             10 	(obj:0)
$_265_x                                            10 	(obj:0)
$_265_y                                           -10 	(obj:0)
$_265_z                                           -18 	(obj:0)
$_30_y                                            -10 	(obj:0)
$_30_z                                            -25 	(obj:0)
$_238__8_x                                         10 	(obj:0)
$_238__8_y                                        -10 	(obj:0)
$_238__8_z                         -0.999999997021103 	(obj:0)
$_156__8_y                                        -10 	(obj:0)
$_213__8_x                                         10 	(obj:0)
$_101_x                              7.00000010317951 	(obj:0)
$_101_y                                           -10 	(obj:0)
$_101_z                                           -20 	(obj:0)
$_52_x                               7.00000003256607 	(obj:0)
$_52_y                                            -10 	(obj:0)
$_202__8_x                           8.00000001190054 	(obj:0)
$_202__8_y                                        -10 	(obj:0)
$_202__8_z                                        -10 	(obj:0)
$_52_z                                            -15 	(obj:0)
$_213__8_y                                         -7 	(obj:0)
$_171_x                                            10 	(obj:0)
$_171_y                                            -3 	(obj:0)
$_171_z                                           -11 	(obj:0)
$_213__8_z                          -9.99999995129251 	(obj:0)
$_55_x                                             10 	(obj:0)
$_236__8_x                                         10 	(obj:0)
$_236__8_y                                         -9 	(obj:0)
$_236__8_z                                        -18 	(obj:0)
$_55_y                                            -10 	(obj:0)
$_55_z                                              3 	(obj:0)
$_254__8_x                           10.0000000472644 	(obj:0)
$_254__8_y                                        -10 	(obj:0)
$_254__8_z                                         -6 	(obj:0)
$_32_x                               8.00000000295849 	(obj:0)
$_77_x                                             10 	(obj:0)
$_269_x                                             8 	(obj:0)
$_269_y                                           -10 	(obj:0)
$_269_z                                            -4 	(obj:0)
$_164__8_x                                         10 	(obj:0)
$_164__8_y                                        -10 	(obj:0)
$_154__8_x                           6.00000002764018 	(obj:0)
$_154__8_y                                        -10 	(obj:0)
$_154__8_z                                        -21 	(obj:0)
$_243__8_x                                          8 	(obj:0)
$_183_x                              9.00000008851747 	(obj:0)
$_183_y                                           -10 	(obj:0)
$_183_z                                           -20 	(obj:0)
$_243__8_y                                        -10 	(obj:0)
$_187_x                                            10 	(obj:0)
$_41_x                                             10 	(obj:0)
$_41_y                                             -9 	(obj:0)
$_41_z                              -14.9999999276645 	(obj:0)
$_187_y                                            -5 	(obj:0)
$_187_z                                           -10 	(obj:0)
$_199_x                                            10 	(obj:0)
$_199_y                                            -8 	(obj:0)
$_199_z                                           -14 	(obj:0)
$_243__8_z                                         -8 	(obj:0)
$_77_y                              -4.00000001872444 	(obj:0)
$_280_x                                            10 	(obj:0)
$_280_y                                           -10 	(obj:0)
$_280_z                                           -10 	(obj:0)
$_98_x                                             10 	(obj:0)
$_98_y                                            -10 	(obj:0)
$_244__8_x                                          7 	(obj:0)
$_244__8_y                                        -10 	(obj:0)
$_244__8_z                                        -17 	(obj:0)
$_98_z                                             -8 	(obj:0)
$_77_z                                            -15 	(obj:0)
$_203__8_x                                         10 	(obj:0)
$_203__8_y                                        -10 	(obj:0)
$_203__8_z                                        -21 	(obj:0)
$_53_x                               8.99999999954999 	(obj:0)
$_100_x                              9.00000005534236 	(obj:0)
$_94_x                                              8 	(obj:0)
$_94_y                                            -10 	(obj:0)
$_94_z                                             -5 	(obj:0)
$_100_y                                           -10 	(obj:0)
$_100_z                                           -14 	(obj:0)
$_63_x                                              9 	(obj:0)
$_63_y                                            -10 	(obj:0)
$_63_z                                            -13 	(obj:0)
$_53_y                                            -10 	(obj:0)
$_53_z                                             -1 	(obj:0)
$_173_x                                            10 	(obj:0)
$_173_y                                            -5 	(obj:0)
$_173_z                                           -13 	(obj:0)
$_151_x                                             9 	(obj:0)
$_151_y                                           -10 	(obj:0)
$_212_x                                            10 	(obj:0)
$_212_y                                            -6 	(obj:0)
$_212_z                                           -12 	(obj:0)
$_151_z                                           -19 	(obj:0)
$_32_y                                            -10 	(obj:0)
$_42_x                                             10 	(obj:0)
$_42_y                                            -10 	(obj:0)
$_42_z                                            -19 	(obj:0)
$_32_z                                              2 	(obj:0)
$_170_x                                            10 	(obj:0)
$_38_x                                             10 	(obj:0)
$_38_y                                             -4 	(obj:0)
$_38_z                               -13.000000062283 	(obj:0)
$_170_y                                            -2 	(obj:0)
$_170_z                                           -11 	(obj:0)
$_274_x                                            10 	(obj:0)
$_274_y                                           -10 	(obj:0)
$_274_z                                           -14 	(obj:0)
$_242_x                                             8 	(obj:0)
$_242_y                                           -10 	(obj:0)
$_201_x                                            10 	(obj:0)
$_201_y                                            -8 	(obj:0)
$_201_z                                           -16 	(obj:0)
$_166_x                                             9 	(obj:0)
$_166_y                                           -10 	(obj:0)
$_89_x                               8.00000000403437 	(obj:0)
$_89_y                                            -10 	(obj:0)
$_89_z                                              1 	(obj:0)
$_166_z                                             1 	(obj:0)
$_242_z                                           -14 	(obj:0)
$_253_x                                            10 	(obj:0)
$_253_y                                            -8 	(obj:0)
$_253_z                                           -10 	(obj:0)
$_88_x                                             10 	(obj:0)
$_161__8_x                                         10 	(obj:0)
$_192_x                                            10 	(obj:0)
$_192_y                                           -10 	(obj:0)
$_192_z                                           -20 	(obj:0)
$_161__8_y                                         -9 	(obj:0)
$_161__8_z                                        -11 	(obj:0)
$_240_x                              8.99999999928487 	(obj:0)
$_240_y                                           -10 	(obj:0)
$_240_z                                           -11 	(obj:0)
$_88_y                                            -10 	(obj:0)
$_205__8_x                                          9 	(obj:0)
$_228_x                                            10 	(obj:0)
$_228_y                                            -9 	(obj:0)
$_228_z                                            -8 	(obj:0)
$_95_x                                             10 	(obj:0)
$_95_y                           -3.35693947066662e-09 	(obj:0)
$_283_x                                            10 	(obj:0)
$_283_y                                           -10 	(obj:0)
$_283_z                                            -7 	(obj:0)
$_95_z                                             -9 	(obj:0)
$_205__8_y                                        -10 	(obj:0)
$_246__8_x                                         10 	(obj:0)
$_246__8_y                                        -10 	(obj:0)
$_246__8_z                                          7 	(obj:0)
$_205__8_z                                          2 	(obj:0)
$_64_x                                             10 	(obj:0)
$_99_x                                             10 	(obj:0)
$_99_y                                             -5 	(obj:0)
$_99_z                                            -11 	(obj:0)
$_64_y                                            -10 	(obj:0)
$_64_z                                            -13 	(obj:0)
$_158_x                                            10 	(obj:0)
$_158_y                                            -6 	(obj:0)
$_158_z                                           -14 	(obj:0)
$_88_z                                              2 	(obj:0)
$_156__8_z                          -1.99999999168792 	(obj:0)
$_31_x                                             10 	(obj:0)
$_31_y                                            -10 	(obj:0)
$_31_z                              -2.99999999227409 	(obj:0)
$_245__8_x                                         10 	(obj:0)
$_245__8_y                                        -10 	(obj:0)
$_33_x                                             10 	(obj:0)
$_33_y                                            -10 	(obj:0)
$_33_z                              -1.99999999022823 	(obj:0)
$_245__8_z                                          5 	(obj:0)
$_247_x                                            10 	(obj:0)
$_252_x                                            10 	(obj:0)
$_252_y                                            -8 	(obj:0)
$_252_z                                            -8 	(obj:0)
$_247_y                                            -9 	(obj:0)
$_281_x                                            10 	(obj:0)
$_211_x                                            10 	(obj:0)
$_211_y                                            -6 	(obj:0)
$_211_z                                           -11 	(obj:0)
$_281_y                                            -8 	(obj:0)
$_281_z                                             4 	(obj:0)
$_206_x                                            10 	(obj:0)
$_206_y                                            -8 	(obj:0)
$_206_z                                             2 	(obj:0)
$_247_z                                             2 	(obj:0)
$_156__8_x                                          8 	(obj:0)
x403                             -6.58790382961236e-09 	(obj:1)
x404                                 0.99999999487016 	(obj:1)
x406                             -5.82370453414048e-09 	(obj:1)
x408                                0.999999996519558 	(obj:1)
x411                             -7.27018935950684e-09 	(obj:1)
x412                             -1.64740905437101e-09 	(obj:1)
x413                             -1.64740905878146e-09 	(obj:1)
x414                                0.999999998352591 	(obj:1)
x419                             -4.69191622746851e-09 	(obj:1)
x424                             -4.99015469300573e-09 	(obj:1)
x428                                0.999999998859301 	(obj:1)
x430                             -5.82370453414419e-09 	(obj:1)
x434                                0.999999998352591 	(obj:1)
x446                             1.84524732139418e-09 	(obj:1)
x449                                0.999999995541059 	(obj:1)
x451                                0.999999998352591 	(obj:1)
x455                                                1 	(obj:1)
x456                                                2 	(obj:1)
x464                             -4.33816498970426e-09 	(obj:1)
x466                             -5.82370453414387e-09 	(obj:1)
x467                             -1.64740909821085e-09 	(obj:1)
x479                                0.999999993903369 	(obj:1)
x482                                0.999999998352591 	(obj:1)
x489                                                2 	(obj:1)
x490                                                1 	(obj:1)
x491                                0.999999998352591 	(obj:1)
x509                             -4.78852617669269e-09 	(obj:1)
x517                             -5.82370453414355e-09 	(obj:1)
x518                                0.999999998352591 	(obj:1)
x521                                 1.99999989802905 	(obj:1)
x524                                 1.99999989599855 	(obj:1)
x527                                 0.99999999659492 	(obj:1)
x529                             -1.64740909531513e-09 	(obj:1)
x530                             -4.86936925760289e-09 	(obj:1)
x536                             -1.64740910086145e-09 	(obj:1)
x539                             -1.64740906437206e-09 	(obj:1)
x545                             -1.64740905226034e-09 	(obj:1)
x553                                                2 	(obj:1)
x556                             -3.71105595072481e-09 	(obj:1)
x557                                 2.99999989099678 	(obj:1)
x560                                 1.99999998227576 	(obj:1)
x564                                                1 	(obj:1)
x572                             -4.54161036992229e-09 	(obj:1)
x578                             -4.88156261322933e-09 	(obj:1)
x581                                0.999999995091467 	(obj:1)
x584                                 0.99999999310259 	(obj:1)
x589                             -5.46417298478996e-09 	(obj:1)
x593                                                1 	(obj:1)
x594                                                2 	(obj:1)
x601                             -5.82370453414036e-09 	(obj:1)
x602                              -1.647409104522e-09 	(obj:1)
x615                                                1 	(obj:1)
x628                             -5.15260639456932e-09 	(obj:1)
x635                                 1.99999999230154 	(obj:1)
x637                             -1.64740910618706e-09 	(obj:1)
x641                                                1 	(obj:1)
x642                                                2 	(obj:1)
x649                                0.999999998352591 	(obj:1)
x650                                0.999999997773309 	(obj:1)
x652                                0.999999998352591 	(obj:1)
x656                                                1 	(obj:1)
x658                                                1 	(obj:1)
x676                             -9.99999987362348e-09 	(obj:1)
x679                                0.999999984404528 	(obj:1)
x683                                                1 	(obj:1)
x684                                                2 	(obj:1)
x685                                                2 	(obj:1)
x688                                                1 	(obj:1)
x691                                                1 	(obj:1)
x693                                 1.99999999479383 	(obj:1)
x696                             -1.64740906211443e-09 	(obj:1)
